NAME : rat99.tsp
COMMENT : Optimal tour for rat99.tsp
TYPE : TOUR
DIMENSION : 99
Total Length: 1325.1920675135962
TOUR_SECTION
1
2
10
11
12
3
4
14
5
6
7
8
9
18
17
27
36
35
34
33
42
43
44
45
52
51
50
60
53
54
63
62
61
70
71
72
81
80
79
89
90
99
98
97
96
94
93
92
91
82
83
84
85
86
95
87
88
77
76
75
73
74
66
67
68
78
69
59
58
49
57
56
65
64
55
46
47
38
48
39
40
41
32
31
30
29
37
28
19
20
21
22
23
24
26
25
16
15
13
-1
EOF
